(declare-const v0 Bool)
(declare-const v1 Bool)
(declare-const v2 Bool)
(declare-const v3 Bool)
(declare-const v4 Bool)
(assert (edge (or (not v0) (not v1)) (or v0 v1)))
(assert (edge (not v2) (or v0 v1 (not v3))))
(assert (edge v2 (or v2 v4 (not v1))))
(assert (edge (or v4 (not v1) (not v2)) (or v2 v3)))
(assert (edge (or (not v3) (not v0) (not v2)) true))
(assert (not (edge (not v1) v3)))